units		real
atom_style	atomic

# read configuration
read_data	Kr_80K.dat

# potential
pair_style      lj/cut 7.0
pair_coeff      1 1 0.34319013128 3.591
neighbor        1.0 bin
neigh_modify    every 1 check yes

# ouputs
thermo          1000
thermo_style    custom step temp pe ke etotal
dump            2 all custom 5000 md.lammpstrj id type x y z

# NVE simulation
timestep        1.0
fix		1 all nve
run		1000000
unfix		1


