units		real
atom_style	atomic

# read configuration
read_data	Kr_gas.dat

# potential
pair_style      lj/cut 10.0
pair_coeff      1 1 0.34319013128 3.591
neighbor        1.0 bin
neigh_modify    every 1 check yes

# ouputs
thermo          1000
thermo_style    custom step temp pe ke etotal
dump            2 all custom 5000 md.lammpstrj id type x y z

# compute pair distribution function
timestep        1.0
compute         myPDF all rdf 1000 1 1
fix		1 all nve
fix             2 all ave/time 1 100000 100000 c_myPDF[*] file pdf.dat mode vector
run		100000
unfix		2
unfix		1


